NAME          
ROWS
 N  OBJ
 L  c1
 L  c2
 L  c3
COLUMNS
    MARKER    'MARKER'                 'INTORG'
    x[1]      c1        159
    x[1]      c2        641
    x[1]      c3        784
    x[1]      OBJ       -346
    x[2]      c1        108
    x[2]      c2        191
    x[2]      c3        258
    x[2]      OBJ       -399
    x[3]      c1        939
    x[3]      c2        876
    x[3]      c3        172
    x[3]      OBJ       -957
    x[4]      c1        77
    x[4]      c2        124
    x[4]      c3        909
    x[4]      OBJ       -342
    x[5]      c1        82
    x[5]      c2        894
    x[5]      c3        249
    x[5]      OBJ       -509
    x[6]      c1        321
    x[6]      c2        528
    x[6]      c3        403
    x[6]      OBJ       -626
    x[7]      c1        415
    x[7]      c2        115
    x[7]      c3        334
    x[7]      OBJ       -652
    x[8]      c1        914
    x[8]      c2        356
    x[8]      c3        150
    x[8]      OBJ       -938
    x[9]      c1        834
    x[9]      c2        244
    x[9]      c3        721
    x[9]      OBJ       -69
    x[10]     c1        260
    x[10]     c2        306
    x[10]     c3        581
    x[10]     OBJ       -657
    x[11]     c1        729
    x[11]     c2        834
    x[11]     c3        396
    x[11]     OBJ       -371
    x[12]     c1        947
    x[12]     c2        24
    x[12]     c3        975
    x[12]     OBJ       -971
    x[13]     c1        633
    x[13]     c2        123
    x[13]     c3        931
    x[13]     OBJ       -84
    x[14]     c1        153
    x[14]     c2        128
    x[14]     c3        94
    x[14]     OBJ       -694
    x[15]     c1        877
    x[15]     c2        43
    x[15]     c3        299
    x[15]     OBJ       -289
    x[16]     c1        43
    x[16]     c2        504
    x[16]     c3        579
    x[16]     OBJ       -284
    x[17]     c1        207
    x[17]     c2        616
    x[17]     c3        48
    x[17]     OBJ       -81
    x[18]     c1        654
    x[18]     c2        981
    x[18]     c3        259
    x[18]     OBJ       -621
    x[19]     c1        879
    x[19]     c2        875
    x[19]     c3        903
    x[19]     OBJ       -897
    x[20]     c1        77
    x[20]     c2        945
    x[20]     c3        608
    x[20]     OBJ       -355
RHS
    rhs       c1        4654
    rhs       c2        4674
    rhs       c3        4826
RANGES
BOUNDS
 BV bounds    x[1]
 BV bounds    x[2]
 BV bounds    x[3]
 BV bounds    x[4]
 BV bounds    x[5]
 BV bounds    x[6]
 BV bounds    x[7]
 BV bounds    x[8]
 BV bounds    x[9]
 BV bounds    x[10]
 BV bounds    x[11]
 BV bounds    x[12]
 BV bounds    x[13]
 BV bounds    x[14]
 BV bounds    x[15]
 BV bounds    x[16]
 BV bounds    x[17]
 BV bounds    x[18]
 BV bounds    x[19]
 BV bounds    x[20]
ENDATA
